solution status: optimal solution found
objective value:                     193056.719571196
d11(0,0)                                            1 	(obj:0)
d11(1,1)                                            1 	(obj:0)
d11(2,3)                                            1 	(obj:0)
d11(2,5)                                            1 	(obj:0)
d11(3,13)                                           1 	(obj:0)
d11(5,31)                                           1 	(obj:0)
d11(5,32)                                           1 	(obj:0)
d11(5,33)                                           1 	(obj:0)
d11(5,34)                                           1 	(obj:0)
d11(5,35)                                           1 	(obj:0)
d11(5,36)                                           1 	(obj:0)
d11(5,37)                                           1 	(obj:0)
d11(5,38)                                           1 	(obj:0)
d11(5,39)                                           1 	(obj:0)
d11(5,40)                                           1 	(obj:0)
d11(5,41)                                           1 	(obj:0)
d11(5,42)                                           1 	(obj:0)
d11(5,43)                                           1 	(obj:0)
d11(5,44)                                           1 	(obj:0)
d11(5,45)                                           1 	(obj:0)
d11(5,46)                                           1 	(obj:0)
d11(5,47)                                           1 	(obj:0)
d11(5,48)                                           1 	(obj:0)
d11(5,49)                                           1 	(obj:0)
d11(5,50)                                           1 	(obj:0)
d11(5,51)                                           1 	(obj:0)
d11(5,52)                                           1 	(obj:0)
d11(5,53)                                           1 	(obj:0)
d11(5,54)                                           1 	(obj:0)
d11(5,55)                                           1 	(obj:0)
d11(5,56)                                           1 	(obj:0)
d11(5,57)                                           1 	(obj:0)
d11(5,58)                                           1 	(obj:0)
d11(5,59)                                           1 	(obj:0)
d11(5,60)                                           1 	(obj:0)
d11(5,61)                                           1 	(obj:0)
d11(5,62)                                           1 	(obj:0)
d12(3,8)                                            1 	(obj:0)
d12(3,10)                                           1 	(obj:0)
d12(3,12)                                           1 	(obj:0)
d12(3,14)                                           1 	(obj:0)
d12(4,16)                                           1 	(obj:0)
d12(4,18)                                           1 	(obj:0)
d12(4,20)                                           1 	(obj:0)
d12(4,22)                                           1 	(obj:0)
d12(4,24)                                           1 	(obj:0)
d12(4,26)                                           1 	(obj:0)
d12(4,28)                                           1 	(obj:0)
d12(4,30)                                           1 	(obj:0)
d21(5,31)                                           1 	(obj:0)
d21(5,32)                                           1 	(obj:0)
d21(5,33)                                           1 	(obj:0)
d21(5,34)                                           1 	(obj:0)
d21(5,35)                                           1 	(obj:0)
d21(5,36)                                           1 	(obj:0)
d21(5,37)                                           1 	(obj:0)
d21(5,39)                                           1 	(obj:0)
d21(5,41)                                           1 	(obj:0)
d21(5,43)                                           1 	(obj:0)
d21(5,47)                                           1 	(obj:0)
d21(5,49)                                           1 	(obj:0)
d21(5,51)                                           1 	(obj:0)
STE(1,1)                             5586.75010111115 	(obj:0)
STE(0,0)                                         7875 	(obj:0)
STE(1,2)                                         7245 	(obj:0)
STE(2,3)                             3298.50020222226 	(obj:0)
STE(2,4)                             4956.75010111116 	(obj:0)
STE(2,5)                             4956.75010111111 	(obj:0)
STE(2,6)                                         6615 	(obj:0)
STE(3,7)                             2668.50020222226 	(obj:0)
STE(3,8)                             3984.71428809876 	(obj:0)
STE(3,9)                             4326.75010111116 	(obj:0)
STE(3,10)                            5642.96418698766 	(obj:0)
STE(3,11)                            4326.75010111111 	(obj:0)
STE(3,12)                            5642.96418698761 	(obj:0)
STE(3,13)                                        5985 	(obj:0)
STE(3,14)                            7301.21408587651 	(obj:0)
STE(4,15)                            2038.50020222226 	(obj:0)
STE(4,16)                            3354.71428809876 	(obj:0)
STE(4,17)                            3354.71428809876 	(obj:0)
STE(4,18)                            4670.92837397527 	(obj:0)
STE(4,19)                            3696.75010111116 	(obj:0)
STE(4,20)                            5012.96418698766 	(obj:0)
STE(4,21)                            5012.96418698766 	(obj:0)
STE(4,22)                            6329.17827286417 	(obj:0)
STE(4,23)                            3696.75010111111 	(obj:0)
STE(4,24)                            5012.96418698761 	(obj:0)
STE(4,25)                            5012.96418698761 	(obj:0)
STE(4,26)                            6329.17827286412 	(obj:0)
STE(4,27)                                        5355 	(obj:0)
STE(4,28)                            6671.21408587651 	(obj:0)
STE(4,29)                            6671.21408587651 	(obj:0)
STE(4,30)                            7987.42817175301 	(obj:0)
STE(5,31)                           -1741.49979778201 	(obj:0)
STE(5,32)                           -83.2498988931918 	(obj:0)
STE(5,33)                           -425.285711905504 	(obj:0)
STE(5,34)                            1232.96418698331 	(obj:0)
STE(5,35)                           -425.285711905504 	(obj:0)
STE(5,36)                            1232.96418698331 	(obj:0)
STE(5,37)                            890.928373971003 	(obj:0)
STE(5,38)                            2549.17827285982 	(obj:0)
STE(5,39)                           -83.2498988931132 	(obj:0)
STE(5,40)                             1574.9999999957 	(obj:0)
STE(5,41)                            1232.96418698339 	(obj:0)
STE(5,42)                            2891.21408587221 	(obj:0)
STE(5,43)                            1232.96418698339 	(obj:0)
STE(5,44)                            2891.21408587221 	(obj:0)
STE(5,45)                             2549.1782728599 	(obj:0)
STE(5,46)                            4207.42817174872 	(obj:0)
STE(5,47)                            -83.249898893163 	(obj:0)
STE(5,48)                            1574.99999999567 	(obj:0)
STE(5,49)                            1232.96418698334 	(obj:0)
STE(5,50)                            2891.21408587215 	(obj:0)
STE(5,51)                            1232.96418698334 	(obj:0)
STE(5,52)                            2891.21408587216 	(obj:0)
STE(5,53)                            2549.17827285985 	(obj:0)
STE(5,54)                            4207.42817174867 	(obj:0)
STE(5,55)                            1574.99999999577 	(obj:0)
STE(5,56)                            3233.24989888455 	(obj:0)
STE(5,57)                            2891.21408587224 	(obj:0)
STE(5,58)                            4549.46398476111 	(obj:0)
STE(5,59)                            2891.21408587224 	(obj:0)
STE(5,60)                            4549.46398476106 	(obj:0)
STE(5,61)                            4207.42817174874 	(obj:0)
STE(5,62)                            5865.67807063756 	(obj:0)
y1(5,38)                             1342.57509100391 	(obj:0)
y1(5,39)                             2835.00000000384 	(obj:0)
y1(5,40)                             1342.57509100391 	(obj:0)
y1(5,41)                             2835.00000000384 	(obj:0)
y1(5,42)                             1342.57509100391 	(obj:0)
y1(5,43)                             2835.00000000384 	(obj:0)
y1(5,44)                             1342.57509100391 	(obj:0)
y1(5,45)                             2835.00000000384 	(obj:0)
y1(5,46)                             1342.57509100391 	(obj:0)
y1(5,47)                             2835.00000000384 	(obj:0)
y1(5,48)                              1342.5750910039 	(obj:0)
y1(5,49)                             2835.00000000384 	(obj:0)
y1(5,50)                             1342.57509100392 	(obj:0)
y1(5,51)                             2835.00000000384 	(obj:0)
y1(5,52)                             1342.57509100391 	(obj:0)
y1(5,53)                             2835.00000000384 	(obj:0)
y1(5,54)                             1342.57509100391 	(obj:0)
y1(5,55)                             2835.00000000381 	(obj:0)
y1(5,56)                             1342.57509100391 	(obj:0)
y1(5,57)                             2835.00000000384 	(obj:0)
y1(5,58)                             1342.57509100386 	(obj:0)
y1(5,59)                             2835.00000000384 	(obj:0)
y1(5,60)                             1342.57509100391 	(obj:0)
y1(5,61)                             2835.00000000384 	(obj:0)
y1(5,62)                             1342.57509100391 	(obj:0)
AVE(1)                                   3216.9117036 	(obj:0)
AVE(2)                                   3366.1541945 	(obj:0)
WB(3)                                    3515.3966854 	(obj:0)
AVE(3)                                   3515.3966854 	(obj:0)
WB(4)                                3515.39406545826 	(obj:0)
AVE(4)                               3515.39406545826 	(obj:0)
AVE(5)                               3167.15385943327 	(obj:0)
WG(1)                                    3216.9117036 	(obj:10)
WG(2)                                    3366.1541945 	(obj:10)
WG(5)                                3167.15385943327 	(obj:10)
BG(1)                                979.380795379592 	(obj:10)
BG(2)                                830.138304479591 	(obj:10)
BG(3)                                2673.40993877551 	(obj:10)
BG(4)                                2673.40993877551 	(obj:10)
BG(5)                                2399.11322220328 	(obj:10)
y1(1,1)                              1492.42490899996 	(obj:0)
y1(2,3)                              1492.42490900001 	(obj:0)
y1(2,5)                              1492.42490900001 	(obj:0)
y1(5,31)                             2835.00000000384 	(obj:0)
y1(5,32)                             1342.57509100391 	(obj:0)
y1(5,33)                             2835.00000000384 	(obj:0)
y1(5,34)                             1342.57509100391 	(obj:0)
y1(5,35)                             2835.00000000384 	(obj:0)
y1(5,36)                             1342.57509100391 	(obj:0)
y1(5,37)                             2835.00000000384 	(obj:0)
y2(3,8)                              1385.48851144895 	(obj:0)
y2(3,10)                             1385.48851144895 	(obj:0)
y2(3,12)                             1385.48851144895 	(obj:0)
y2(3,14)                             1385.48851144895 	(obj:0)
y2(4,16)                             1385.48851144895 	(obj:0)
y2(4,18)                             1385.48851144895 	(obj:0)
y2(4,20)                             1385.48851144895 	(obj:0)
y2(4,22)                             1385.48851144895 	(obj:0)
y2(4,24)                             1385.48851144895 	(obj:0)
y2(4,26)                             1385.48851144895 	(obj:0)
y2(4,28)                             1385.48851144895 	(obj:0)
y2(4,30)                             1385.48851144895 	(obj:0)
